treewidth/data/HoffmanSingletonGraph.gr
p tw 50 175
1 13
1 24
1 19
1 25
1 30
1 36
1 41
2 24
2 35
2 20
2 26
2 31
2 37
2 42
13 35
13 21
13 27
13 32
13 38
13 43
24 22
24 28
24 33
24 39
24 44
35 23
35 29
35 34
35 40
35 45
46 48
46 49
46 19
46 26
46 32
46 39
46 45
47 49
47 50
47 20
47 27
47 33
47 40
47 41
48 50
48 21
48 28
48 34
48 36
48 42
49 22
49 29
49 30
49 37
49 43
50 23
50 25
50 31
50 38
50 44
3 5
3 6
3 19
3 27
3 34
3 37
3 44
4 6
4 7
4 20
4 28
4 30
4 38
4 45
5 7
5 21
5 29
5 31
5 39
5 41
6 22
6 25
6 32
6 40
6 42
7 23
7 26
7 33
7 36
7 43
8 10
8 11
8 19
8 28
8 31
8 40
8 43
9 11
9 12
9 20
9 29
9 32
9 36
9 44
10 12
10 21
10 25
10 33
10 37
10 45
11 22
11 26
11 34
11 38
11 41
12 23
12 27
12 30
12 39
12 42
14 16
14 17
14 19
14 29
14 33
14 38
14 42
15 17
15 18
15 20
15 25
15 34
15 39
15 43
16 18
16 21
16 26
16 30
16 40
16 44
17 22
17 27
17 31
17 36
17 45
18 23
18 28
18 32
18 37
18 41
19 20
19 23
20 21
21 22
22 23
25 26
25 29
26 27
27 28
28 29
30 31
30 34
31 32
32 33
33 34
36 37
36 40
37 38
38 39
39 40
41 42
41 45
42 43
43 44
44 45
