treewidth/data/HoffmanSingletonGraph.td
c width = 25, time = 797.141243
s td 10 26 50
b 1 1 5 11 13 18 19 20 23 24 25 27 30 31 33 36 38 40 41 42 44 45 47 48 49 50
b 2 5 6 10 11 13 15 18 19 20 23 24 25 26 27 29 30 31 33 36 38 40 42 44 45 48 49
b 3 5 6 10 11 13 15 18 19 20 23 24 26 27 29 30 31 33 36 37 38 40 42 44 45 48 49
b 4 2 3 5 6 11 13 15 19 20 23 24 26 27 29 30 31 33 34 35 37 40 42 44 45 48
b 5 5 6 10 11 13 15 18 19 20 23 24 26 27 29 30 31 33 36 38 40 42 43 44 45 48 49
b 6 4 5 6 7 8 10 11 18 19 20 23 24 26 27 28 29 30 31 33 36 38 40 43 45 48
b 7 5 6 10 11 13 15 18 19 20 23 24 26 27 29 30 31 33 36 38 39 40 42 44 45 48 49
b 8 6 9 10 11 12 13 18 19 20 23 26 27 29 30 31 32 33 36 39 42 44 45 46 48 49
b 9 5 6 10 11 13 15 18 19 20 21 23 24 26 27 29 30 31 33 36 38 40 42 44 45 48 49
b 10 6 11 14 15 16 17 18 19 21 22 23 24 26 27 29 30 31 33 36 38 40 42 44 45 49
3 4
2 3
5 6
2 5
7 8
2 7
9 10
2 9
1 2
